Route #1: 5 15 24 39 52 42 53 64 59 68 89 95 96 82 76 83 90 77 65 69 70 84 78 97 91 85 92 98 93 99 94 87 74 80 67 73 79 86 72 66 71 61 60 54 44 32 43 31 40 30 25 16 6 1 7 12 2 13 21 17 33 22 34 45 46 55 56 41 27 26 18 19 8 9 3 10 4 11 14 20 29 37 23 38 51 50 49 36 28 35 47 48 57 58 62 63 75 81 88 100
Cost 46875
